
  32    1
  10

   0   0   5 2 3 6 7 8 
   4   1   2 12 4 
   8   5   8 18 17 14 13 12 11 10 9 
   9   2   6 14 13 11 10 9 5 
   2   5  10 31 25 23 21 20 19 18 17 16 15 
   6   3   6 25 23 20 18 15 9 
   4   2   4 21 19 11 10 
   3   4   3 31 19 10 
  10   2   6 31 30 29 24 21 19 
   7   6   3 25 16 15 
   1   5   5 30 29 24 22 20 
   8   6   4 29 23 21 19 
   3   3   5 31 29 28 24 22 
   5   4   4 29 24 22 19 
   9   2   4 30 29 28 22 
  10   3   3 30 24 22 
   7  10   3 30 29 22 
   8   4   2 28 22 
   1   9   3 28 27 26 
   8   6   3 28 27 26 
   3   2   1 22 
   9   4   2 27 26 
   7   4   2 27 26 
   3   4   1 26 
   3   4   1 29 
  10   2   1 32
   8   4   1 32
   8   3   1 32
  10   3   1 32
   2   5   1 32
   3   3   1 32
   0   0   0 
